NAME: ts225
COMMENT: Quick (5min) local search tour for ts225 (142306.50625802093)
TYPE: TOUR
DIMENSION: 225
TOUR_SECTION: 1 2 3 4 5 6 7 8 9 10 11 12 13 14 15 16 17 18 19 20 21 22 23 24 25 146 147 148 149 150 50 49 48 47 46 45 171 172 173 174 175 196 75 74 73 72 71 70 69 170 169 168 167 166 44 141 142 143 144 145 43 42 41 40 39 38 37 36 35 34 33 32 156 157 158 159 160 57 56 55 54 53 52 151 152 153 154 155 51 176 177 178 179 180 76 77 78 79 80 81 206 207 208 209 210 201 202 203 204 205 101 102 103 104 105 106 107 108 109 110 111 112 113 114 115 116 117 118 119 120 121 122 123 124 125 225 224 223 222 221 220 219 218 217 216 195 194 215 214 213 212 211 88 87 86 85 84 83 82 185 184 183 182 181 58 59 60 61 62 186 187 188 189 190 89 90 91 92 93 94 95 96 97 98 99 100 200 199 198 197 193 192 191 68 67 66 65 64 63 165 164 163 162 161 140 139 138 137 136 134 135 31 30 29 28 27 26 130 129 128 127 133 132 131 126 -1
EOF